
  32    4
  10   10   10   10

   0   0   0   0   0   7 2 26 27 28 29 30 31 
   3   1   1   0   1   1 3 
   1   0   5   2   5   1 4 
   5   2   0   5   4   1 5 
   8   3   3   0   7   1 6 
   6   0   4   4   3   3 25 24 7 
  10   6   3   0   3   1 8 
  10   3   4   0   6   2 23 9 
   6   7   2   0   2   3 22 21 10 
   8   3   6   1   0   1 11 
   6   0   5   4   5   2 20 12 
   9   3   0   4   8   1 13 
   8   5   4   0   3   1 14 
   3   5   0   6   3   1 15 
   6   7   0   4   3   1 16 
   8   2   0   4   5   1 17 
   5   7   2   7   0   1 18 
  10   0   3   5   3   1 19 
   8   0   5   1   4   1 32
   8   5   4   3   0   1 32
   7   3   2   4   0   1 32
  10   3   7   0   5   1 32
   7   3   5   6   0   1 32
   5   2   4   0   5   1 32
   8   3   9   2   0   1 32
   1   7   4   4   0   1 32
   1   0   2   3   2   1 32
   1   4   2   3   0   1 32
   2   4   3  10   0   1 32
   9   0   6   2   4   1 32
  10   0   5   4   3   1 32
   0   0   0   0   0   0 
